max_width = 15;
n_blocks = 25;
width = [5, 4, 4, 4, 3, 3, 3, 3, 2, 4, 2, 2, 2, 3, 4, 2, 5, 5, 2, 2, 2, 3, 2, 4, 2];
height = [13, 13, 12, 11, 13, 11, 11, 9, 13, 6, 12, 11, 11, 7, 5, 9, 3, 3, 7, 6, 5, 2, 2, 1, 1];
